#WORKLOC=$PWD
#for j in `seq 4.6 0.1 5.6`
#do
#mkdir $WORKLOC/$j
#cd $WORKLOC/$j
#cat << EOF >> $WORKLOC/$j/Ar.in

#LAMMPS input script for Lattice parameter of solid Ar
#variable	lp universe 4.6 4.8 
units       	metal
variable    	T equal 25
variable	dt equal 0.001
variable	lp equal 5.6
variable 	E equal etotal

# setup problem

dimension    	3
boundary     	p p p
atom_style	atomic
lattice      	fcc ${lp} orient x 1 0 0 orient y 0 1 0 orient z 0 0 1
region       	box block 0 5 0 5 0 5
create_box   	1 box
create_atoms 	1 box
mass      	1 50
pair_style   	lj/smooth 8.0 9.0
pair_coeff   	* * 0.016 3.5
timestep     	${dt}
dump            1 all atom 5000 config.dump

# equilibration and thermalization

variable	2T equal 2*$T
velocity     	all create ${2T} 23426753 mom yes rot yes dist gaussian
#fix             pressure all press/berendsen iso 0.0 0.0 10
fix             NVT all nvt temp $T $T 0.1
variable	lat_param equal (lx+ly+lz)/12

fix pe_atom all ave/time 1000 10 10000 v_lat_param v_E file pe.dat ave running

thermo_style    custom step temp press vol ke pe etotal
thermo		2000
run          	100000

#EOF
#lmp_daily < $WORKLOC/$j/Ar.in > $WORKLOC/$j/Ar.out
#cd $WORKLOC
#done
